Route #1: 55 7 23 14 9
Route #2: 43 32 26 4 22 12 13
Route #3: 44 11 60 31 52 57 17 50
Route #4: 34 35 18 48 16 1 28 39
Route #5: 58 29 36 21 27 56 47 51
Route #6: 20 41 8 53 40 19
Route #7: 49 2 46 54 5 6 25
Route #8: 3 38 15
Route #9: 24 10 59 45 37 30 42 33
Cost 1035
Time 0.097366
